 94 43  6 47 45 51 73 49 31 58 19 36 54 75  7  5 82 20 31 32
  3 18 43 41 83 62 27 75 52 58 18  1 61 67 55 72 16 12 87 21
 39 23 28 31 86 19 85 90 77  4 85 81  9 52 67 77 45  7 21 26
  1 92 83 43  3  3 51  5 38 37 44 66 31  8 79 42 85 92 89 29
 63 96 50 12 15 11 33  7  4 58 27  7  7 54 31 94 25  8 61 51
 86 36 19 71  8 77  8  6 40 39 24 82 69 82 39 52 85 48 22 57
 44 25 85 86 73 58 95 13 50 39 24 55 58 79 42 98 44 16 13 74
 19 82 12 70  6 64  3  4 29 43 40 77 88 74 13 13 17 45  2 22
 55 46 68 15 55 74 42 40 88 68 67 67  8 13 74 47  3 95 36 46
 67 66 66 32  8 30 92 40 13 79 19 29 27 18 42 86 30 41 27 50